40
    60    49    18    87    42    79    92    64    65    11    92    31    71    47    62     4    27    40    20    99    29    96    66    37     4    77    75    43     3    94     2    43     8    15    79    68    28    57    17    50
     1     5     7     8     3     2     3     6     2     5     8     4     8     5    10     6     4     8     1     9     7     6     5     9    10     9     1     5     3     1     1     5     7     3     1     8    10    10     9     6
  1159   986  1117   761   428   909   599  1123  1070   960   780   891   464   484   683   507  1064   521   431  1069   981   473   585   811   530   612  1098   526   601  1077   660   817   634   495  1104   516   890   426   512   939
